c Reduced graph for p31_6 generated by Cyril Grelier
p edge 22 71
v 1 210
v 2 90
v 3 90
v 4 89
v 5 80
v 6 80
v 7 80
v 8 80
v 9 80
v 10 80
v 11 75
v 12 70
v 13 60
v 14 50
v 15 40
v 16 40
v 17 40
v 18 37
v 19 35
v 20 30
v 21 10
v 22 10
e 1 3
e 1 4
e 1 5
e 1 11
e 1 13
e 1 15
e 1 19
e 1 20
e 2 9
e 2 13
e 2 22
e 3 6
e 4 5
e 4 8
e 4 11
e 4 13
e 4 15
e 4 19
e 4 20
e 5 6
e 5 11
e 5 12
e 5 13
e 5 15
e 5 16
e 5 17
e 5 19
e 5 20
e 5 21
e 6 12
e 6 16
e 6 17
e 6 21
e 7 8
e 7 14
e 7 18
e 7 19
e 7 21
e 7 22
e 8 14
e 8 18
e 8 21
e 8 22
e 9 13
e 9 22
e 10 15
e 10 18
e 11 13
e 11 15
e 11 19
e 11 20
e 12 16
e 12 17
e 12 21
e 13 15
e 13 19
e 13 20
e 13 22
e 14 18
e 14 21
e 14 22
e 15 18
e 15 19
e 15 20
e 16 17
e 16 21
e 17 21
e 18 21
e 18 22
e 19 20
e 21 22
